
Gurobi 9.5.0 (linux64) logging started Tue Nov  7 13:30:21 2023

Set parameter LogFile to value "/lustre1/scratch/348/vsc34888/JointResearch/05.Models/06.Benchmarking/E.Representative_days_based_on_Line_Benefits_OptModel/9n_ByStages_nc20/openStarNet_9n_ByStages_nc20.log"
Set parameter Method to value 2
Set parameter MIPFocus to value 1
Set parameter Presolve to value 2
Set parameter RINS to value 100
Set parameter MIPGap to value 0.01
Set parameter Threads to value 36
Set parameter TimeLimit to value 604800
Set parameter IterationLimit to value 760000000
Gurobi Optimizer version 9.5.0 build v9.5.0rc5 (linux64)
Thread count: 36 physical cores, 36 logical processors, using up to 36 threads
Optimize a model with 5243 rows, 2805 columns and 16343 nonzeros
Model fingerprint: 0x492cff2a
Variable types: 2769 continuous, 36 integer (36 binary)
Coefficient statistics:
  Matrix range     [9e-04, 3e+03]
  Objective range  [1e+00, 1e+00]
  Bounds range     [4e-04, 2e+00]
  RHS range        [4e-04, 1e+00]
Presolve removed 1703 rows and 864 columns
Presolve time: 0.02s
Presolved: 3540 rows, 1941 columns, 12525 nonzeros
Variable types: 1905 continuous, 36 integer (36 binary)
Found heuristic solution: objective 845.9798471
Root relaxation presolved: 3540 rows, 1941 columns, 12525 nonzeros

Root barrier log...

Ordering time: 0.07s

Barrier statistics:
 AA' NZ     : 1.542e+05
 Factor NZ  : 1.052e+06 (roughly 10 MB of memory)
 Factor Ops : 5.760e+08 (less than 1 second per iteration)
 Threads    : 36

                  Objective                Residual
Iter       Primal          Dual         Primal    Dual     Compl     Time
   0   3.63167931e+05 -3.07217242e+07  6.10e+00 7.70e+02  1.30e+04     0s
   1   4.12940822e+04 -8.69676132e+06  6.31e-01 1.01e-10  1.66e+03     0s
   2   1.17002956e+04 -1.02805911e+06  7.58e-03 1.75e-10  1.50e+02     0s
   3   4.30602212e+03 -2.19316293e+04  5.18e-13 1.47e-11  3.75e+00     0s
   4   8.71574260e+02 -4.82699381e+03  1.01e-12 3.01e-12  8.14e-01     0s
   5   5.13120525e+02 -1.28384271e+03  6.83e-13 1.82e-12  2.57e-01     0s
   6   3.45669030e+02 -6.76605507e+02  4.27e-13 1.82e-12  1.46e-01     0s
   7   2.11703535e+02 -2.07844512e+02  5.61e-13 3.64e-12  5.99e-02     0s
   8   1.30968214e+02 -4.67518620e+00  3.05e-13 3.64e-12  1.94e-02     0s
   9   1.05294224e+02  7.23543567e+01  4.68e-13 3.64e-12  4.70e-03     0s
  10   9.63006456e+01  8.90393365e+01  1.98e-12 3.64e-12  1.04e-03     0s
  11   9.44371588e+01  9.23526115e+01  3.45e-12 3.64e-12  2.98e-04     0s
  12   9.40926884e+01  9.34425913e+01  4.14e-12 1.82e-12  9.29e-05     0s
  13   9.39510990e+01  9.39290140e+01  3.83e-12 3.64e-12  3.15e-06     0s
  14   9.39432921e+01  9.39432700e+01  2.57e-12 3.64e-12  3.15e-09     0s
  15   9.39432843e+01  9.39432843e+01  1.92e-12 1.82e-12  3.15e-12     0s

Barrier solved model in 15 iterations and 0.46 seconds (0.17 work units)
Optimal objective 9.39432843e+01


Root relaxation: objective 9.394328e+01, 153 iterations, 0.43 seconds (0.13 work units)

    Nodes    |    Current Node    |     Objective Bounds      |     Work
 Expl Unexpl |  Obj  Depth IntInf | Incumbent    BestBd   Gap | It/Node Time

     0     0   93.94328    0    6  845.97985   93.94328  88.9%     -    0s
H    0     0                     737.6182580   93.94328  87.3%     -    0s
     0     0  102.43011    0    3  737.61826  102.43011  86.1%     -    0s
H    0     0                     103.7534040  102.43011  1.28%     -    0s
H    0     0                     102.9148930  102.43011  0.47%     -    0s

Cutting planes:
  Gomory: 1
  Cover: 1
  Implied bound: 3
  MIR: 52

Explored 1 nodes (232 simplex iterations) in 0.55 seconds (0.22 work units)
Thread count was 36 (of 36 available processors)

Solution count 4: 102.915 103.753 737.618 845.98 

Optimal solution found (tolerance 1.00e-02)
Best objective 1.029148930377e+02, best bound 1.026624283895e+02, gap 0.2453%

Gurobi 9.5.0 (linux64) logging started Tue Nov  7 13:30:21 2023

Set parameter LogFile to value "/lustre1/scratch/348/vsc34888/JointResearch/05.Models/06.Benchmarking/E.Representative_days_based_on_Line_Benefits_OptModel/9n_ByStages_nc20/openStarNet_9n_ByStages_nc20.log"
Set parameter Method to value 2
Set parameter MIPFocus to value 1
Set parameter Presolve to value 2
Set parameter RINS to value 100
Set parameter MIPGap to value 0.01
Set parameter Threads to value 36
Set parameter TimeLimit to value 604800
Set parameter IterationLimit to value 760000000
No parameters matching 'relax_integrality' found
Gurobi Optimizer version 9.5.0 build v9.5.0rc5 (linux64)
Thread count: 36 physical cores, 36 logical processors, using up to 36 threads
Optimize a model with 5243 rows, 2769 columns and 13427 nonzeros
Model fingerprint: 0x0524573c
Coefficient statistics:
  Matrix range     [9e-04, 3e+03]
  Objective range  [1e+00, 1e+00]
  Bounds range     [4e-04, 2e+00]
  RHS range        [4e-04, 2e+01]
Presolve removed 4523 rows and 1524 columns
Presolve time: 0.00s
Presolved: 720 rows, 1245 columns, 2745 nonzeros

Ordering time: 0.00s

Barrier statistics:
 AA' NZ     : 2.020e+03
 Factor NZ  : 7.400e+03 (roughly 1 MB of memory)
 Factor Ops : 9.116e+04 (less than 1 second per iteration)
 Threads    : 1

                  Objective                Residual
Iter       Primal          Dual         Primal    Dual     Compl     Time
   0   4.13687207e+05 -1.79040342e+07  4.00e+00 1.82e-12  1.54e+04     0s
   1   5.39963221e+04 -3.49759614e+06  3.99e-01 1.02e-11  1.80e+03     0s
   2   1.42823134e+04 -5.22061882e+05  1.98e-02 1.09e-11  2.04e+02     0s
   3   5.10257239e+03 -2.53270883e+04  2.31e-14 4.55e-12  1.11e+01     0s
   4   9.88330393e+02 -4.66820244e+03  9.24e-14 3.64e-12  2.07e+00     0s
   5   4.93846151e+02 -1.07496837e+03  6.75e-14 5.46e-12  5.75e-01     0s
   6   2.87620678e+02 -2.83444870e+02  5.15e-14 1.82e-12  2.09e-01     0s
   7   1.78396712e+02 -5.29357878e+01  1.06e-13 3.64e-12  8.47e-02     0s
   8   1.22750288e+02  7.39041278e+01  1.30e-13 3.64e-12  1.79e-02     0s
   9   1.07016913e+02  9.41440511e+01  2.70e-13 3.64e-12  4.72e-03     0s
  10   1.04016303e+02  1.01355679e+02  5.56e-13 3.64e-12  9.75e-04     0s
  11   1.03109832e+02  1.02345624e+02  1.51e-12 1.82e-12  2.80e-04     0s
  12   1.02934574e+02  1.02740590e+02  1.54e-12 1.82e-12  7.11e-05     0s
  13   1.02915477e+02  1.02913528e+02  2.02e-11 3.64e-12  7.14e-07     0s
  14   1.02914894e+02  1.02914892e+02  4.68e-13 3.64e-12  7.14e-10     0s
  15   1.02914893e+02  1.02914893e+02  6.52e-13 3.64e-12  7.14e-13     0s

Barrier solved model in 15 iterations and 0.02 seconds (0.01 work units)
Optimal objective 1.02914893e+02

Crossover log...

     231 DPushes remaining with DInf 0.0000000e+00                 0s
       0 DPushes remaining with DInf 0.0000000e+00                 0s

      22 PPushes remaining with PInf 0.0000000e+00                 0s
       0 PPushes remaining with PInf 0.0000000e+00                 0s

  Push phase complete: Pinf 0.0000000e+00, Dinf 9.3064445e-14      0s

Iteration    Objective       Primal Inf.    Dual Inf.      Time
      56    1.0291489e+02   0.000000e+00   0.000000e+00      0s

Solved in 56 iterations and 0.02 seconds (0.01 work units)
Optimal objective  1.029148930e+02
